NAME 
ROWS
 N  OBJ
 L  R0      
 L  R1      
 L  R2      
 E  R3      
 E  R4      
 E  R5      
 E  R6      
 E  R7      
 E  R8      
 E  R9      
 E  R10     
 E  R11     
 E  R12     
 E  R13     
 E  R14     
 E  R15     
 E  R16     
 E  R17     
 E  R18     
 E  R19     
 E  R20     
 E  R21     
 E  R22     
COLUMNS
    MARKER    'MARKER'                 'INTORG'
    I0(12)    OBJ       142
    I0(12)    R0        -126
    I0(12)    R1        84
    I0(12)    R2        -52
    I0(12)    R3        1
    I0(12)    R4        1
    I0(12)    R6        12
    I0(12)    R7        15
    I0(12)    R8        7
    I0(12)    R10       -1
    I0(12)    R11       2
    I0(12)    R12       12
    I0(12)    R22       1
    I1(12)    OBJ       -101
    I1(12)    R0        -60
    I1(12)    R1        -176
    I1(12)    R2        71
    I1(12)    R4        17
    I1(12)    R5        16
    I1(12)    R6        9
    I1(12)    R7        13
    I1(12)    R8        10
    I1(12)    R9        15
    I1(12)    R10       17
    I1(12)    R12       16
    I1(12)    R22       1
    I2(12)    OBJ       -133
    I2(12)    R0        74
    I2(12)    R1        35
    I2(12)    R2        141
    I2(12)    R3        -1
    I2(12)    R4        9
    I2(12)    R5        14
    I2(12)    R6        10
    I2(12)    R7        1
    I2(12)    R8        12
    I2(12)    R10       15
    I2(12)    R11       1
    I2(12)    R22       1
    I3(12)    OBJ       137
    I3(12)    R0        118
    I3(12)    R1        126
    I3(12)    R2        114
    I3(12)    R3        10
    I3(12)    R5        12
    I3(12)    R6        15
    I3(12)    R8        5
    I3(12)    R9        -1
    I3(12)    R10       6
    I3(12)    R11       8
    I3(12)    R12       -1
    I3(12)    R22       1
    I4(14)    OBJ       -110
    I4(14)    R0        -168
    I4(14)    R1        -33
    I4(14)    R2        -180
    I4(14)    R3        6
    I4(14)    R4        16
    I4(14)    R5        -1
    I4(14)    R6        6
    I4(14)    R7        18
    I4(14)    R8        3
    I4(14)    R9        2
    I4(14)    R10       8
    I4(14)    R11       19
    I4(14)    R12       9
    I4(14)    R22       1
    I5(11)    OBJ       -150
    I5(11)    R0        125
    I5(11)    R1        38
    I5(11)    R2        -129
    I5(11)    R4        17
    I5(11)    R5        1
    I5(11)    R6        1
    I5(11)    R7        1
    I5(11)    R8        18
    I5(11)    R9        18
    I5(11)    R12       13
    I5(11)    R22       1
    I6(12)    OBJ       -160
    I6(12)    R0        1
    I6(12)    R1        20
    I6(12)    R2        -183
    I6(12)    R3        18
    I6(12)    R4        18
    I6(12)    R5        15
    I6(12)    R6        3
    I6(12)    R7        4
    I6(12)    R9        13
    I6(12)    R11       16
    I6(12)    R12       12
    I6(12)    R22       1
    I7(9)     OBJ       -36
    I7(9)     R0        143
    I7(9)     R1        162
    I7(9)     R2        143
    I7(9)     R3        6
    I7(9)     R7        9
    I7(9)     R8        18
    I7(9)     R11       14
    I7(9)     R12       7
    I7(9)     R22       1
    I8(11)    OBJ       154
    I8(11)    R0        177
    I8(11)    R1        165
    I8(11)    R2        66
    I8(11)    R3        11
    I8(11)    R7        3
    I8(11)    R8        2
    I8(11)    R9        15
    I8(11)    R10       3
    I8(11)    R11       18
    I8(11)    R12       14
    I8(11)    R22       1
    I9(13)    OBJ       134
    I9(13)    R0        164
    I9(13)    R1        31
    I9(13)    R2        196
    I9(13)    R3        4
    I9(13)    R4        1
    I9(13)    R5        17
    I9(13)    R7        19
    I9(13)    R8        1
    I9(13)    R9        7
    I9(13)    R10       4
    I9(13)    R11       5
    I9(13)    R12       18
    I9(13)    R22       1
    MARKER    'MARKER'                 'INTEND'
    C10(20)   OBJ       -7
    C10(20)   R0        4
    C10(20)   R1        9
    C10(20)   R2        -3
    C10(20)   R3        7
    C10(20)   R4        9
    C10(20)   R5        19
    C10(20)   R6        3
    C10(20)   R7        14
    C10(20)   R8        4
    C10(20)   R10       3
    C10(20)   R11       7
    C10(20)   R13       13
    C10(20)   R14       9
    C10(20)   R15       12
    C10(20)   R16       19
    C10(20)   R17       17
    C10(20)   R18       1
    C10(20)   R19       7
    C10(20)   R20       4
    C10(20)   R21       19
    C11(18)   OBJ       -3
    C11(18)   R0        5
    C11(18)   R1        -7
    C11(18)   R2        -7
    C11(18)   R3        11
    C11(18)   R4        4
    C11(18)   R5        7
    C11(18)   R6        16
    C11(18)   R9        13
    C11(18)   R10       10
    C11(18)   R11       19
    C11(18)   R12       13
    C11(18)   R14       11
    C11(18)   R15       17
    C11(18)   R17       5
    C11(18)   R18       7
    C11(18)   R19       6
    C11(18)   R20       1
    C11(18)   R21       -1
    C12(15)   OBJ       6
    C12(15)   R0        3
    C12(15)   R1        1
    C12(15)   R4        4
    C12(15)   R5        -1
    C12(15)   R6        18
    C12(15)   R8        12
    C12(15)   R9        5
    C12(15)   R10       8
    C12(15)   R14       17
    C12(15)   R15       17
    C12(15)   R16       18
    C12(15)   R17       6
    C12(15)   R18       16
    C12(15)   R19       5
    C12(15)   R20       19
    C13(18)   OBJ       -2
    C13(18)   R0        -9
    C13(18)   R1        -8
    C13(18)   R2        -4
    C13(18)   R3        5
    C13(18)   R4        11
    C13(18)   R5        16
    C13(18)   R6        3
    C13(18)   R7        5
    C13(18)   R8        8
    C13(18)   R10       5
    C13(18)   R11       16
    C13(18)   R13       19
    C13(18)   R14       11
    C13(18)   R15       9
    C13(18)   R17       4
    C13(18)   R18       15
    C13(18)   R19       13
    C13(18)   R21       5
    C14(19)   OBJ       -4
    C14(19)   R0        9
    C14(19)   R1        6
    C14(19)   R2        -10
    C14(19)   R3        13
    C14(19)   R4        2
    C14(19)   R6        17
    C14(19)   R7        1
    C14(19)   R8        3
    C14(19)   R10       -1
    C14(19)   R12       12
    C14(19)   R13       12
    C14(19)   R14       2
    C14(19)   R15       12
    C14(19)   R16       7
    C14(19)   R17       8
    C14(19)   R18       7
    C14(19)   R19       7
    C14(19)   R20       11
    C14(19)   R21       8
    C15(18)   OBJ       2
    C15(18)   R0        -1
    C15(18)   R1        -3
    C15(18)   R2        7
    C15(18)   R3        5
    C15(18)   R4        4
    C15(18)   R5        5
    C15(18)   R6        15
    C15(18)   R7        13
    C15(18)   R8        -1
    C15(18)   R9        10
    C15(18)   R10       4
    C15(18)   R11       1
    C15(18)   R12       12
    C15(18)   R13       8
    C15(18)   R18       11
    C15(18)   R19       18
    C15(18)   R20       1
    C15(18)   R21       17
    C16(19)   OBJ       -4
    C16(19)   R0        4
    C16(19)   R1        -2
    C16(19)   R2        -5
    C16(19)   R4        11
    C16(19)   R5        3
    C16(19)   R6        18
    C16(19)   R8        12
    C16(19)   R9        5
    C16(19)   R10       1
    C16(19)   R11       2
    C16(19)   R12       11
    C16(19)   R13       19
    C16(19)   R14       16
    C16(19)   R15       14
    C16(19)   R16       9
    C16(19)   R17       4
    C16(19)   R18       14
    C16(19)   R19       10
    C16(19)   R21       12
    C17(18)   OBJ       -9
    C17(18)   R0        5
    C17(18)   R1        -7
    C17(18)   R2        -2
    C17(18)   R3        17
    C17(18)   R4        -1
    C17(18)   R7        17
    C17(18)   R9        5
    C17(18)   R10       16
    C17(18)   R11       10
    C17(18)   R12       14
    C17(18)   R13       18
    C17(18)   R14       13
    C17(18)   R15       1
    C17(18)   R17       4
    C17(18)   R18       10
    C17(18)   R19       2
    C17(18)   R20       -1
    C17(18)   R21       10
    C18(20)   OBJ       2
    C18(20)   R0        -7
    C18(20)   R1        6
    C18(20)   R2        -1
    C18(20)   R3        15
    C18(20)   R4        6
    C18(20)   R5        14
    C18(20)   R6        7
    C18(20)   R7        5
    C18(20)   R9        5
    C18(20)   R11       17
    C18(20)   R12       5
    C18(20)   R13       4
    C18(20)   R14       19
    C18(20)   R15       18
    C18(20)   R16       1
    C18(20)   R17       12
    C18(20)   R18       1
    C18(20)   R19       3
    C18(20)   R20       16
    C18(20)   R21       7
    C19(16)   OBJ       2
    C19(16)   R0        -8
    C19(16)   R1        5
    C19(16)   R2        2
    C19(16)   R3        1
    C19(16)   R4        9
    C19(16)   R5        1
    C19(16)   R9        3
    C19(16)   R11       11
    C19(16)   R13       10
    C19(16)   R14       5
    C19(16)   R15       17
    C19(16)   R16       3
    C19(16)   R17       16
    C19(16)   R18       7
    C19(16)   R19       16
    C19(16)   R20       8
    C20(1)    R3        1
    C21(1)    R4        1
    C22(1)    R5        1
    C23(1)    R6        1
    C24(1)    R7        1
    C25(1)    R8        1
    C26(1)    R9        1
    C27(1)    R10       1
    C28(1)    R11       1
    C29(1)    R12       1
    C30(1)    R13       1
    C31(1)    R14       1
    C32(1)    R15       1
    C33(1)    R16       1
    C34(1)    R17       1
    C35(1)    R18       1
    C36(1)    R19       1
    C37(1)    R20       1
    C38(1)    R21       1
    C39(1)    R22       1
RHS
    RHS1      R0        1.4489839572192514e+02
    RHS1      R1        6.3491978609625662e+01
    RHS1      R2        -5.1212299465240642e+02
    RHS1      R3        57
    RHS1      R4        84
    RHS1      R5        57
    RHS1      R6        98
    RHS1      R7        56
    RHS1      R8        60
    RHS1      R9        98
    RHS1      R10       60
    RHS1      R11       71
    RHS1      R12       92
    RHS1      R13       99
    RHS1      R14       68
    RHS1      R15       94
    RHS1      R16       90
    RHS1      R17       65
    RHS1      R18       96
    RHS1      R19       93
    RHS1      R20       69
    RHS1      R21       90
    RHS1      R22       3
BOUNDS
 UP BND1      I0(12)    2
 UP BND1      I1(12)    2
 UP BND1      I2(12)    2
 UP BND1      I3(12)    2
 UP BND1      I4(14)    2
 UP BND1      I5(11)    2
 UP BND1      I6(12)    2
 UP BND1      I7(9)     2
 UP BND1      I8(11)    2
 UP BND1      I9(13)    2
ENDATA
